; crossover-left-arm-stretchXstanding-quadriceps-stretch
(set-info :status unknown)
(set-logic QF_AUFLIRA)
(declare-fun |HandRight Norm| () Real)
(declare-fun |HandRight Z| () Real)
(declare-fun |SpineMid Norm| () Real)
(declare-fun |SpineShoulder Norm| () Real)
(declare-fun |ShoulderRight Norm| () Real)
(declare-fun |ShoulderRight Z| () Real)
(declare-fun |ElbowRight Norm| () Real)
(declare-fun |ElbowRight Z| () Real)
(declare-fun |WristRight Norm| () Real)
(declare-fun |WristRight Z| () Real)
(declare-fun |AnkleRight Norm| () Real)
(declare-fun |HipRight Norm| () Real)
(declare-fun |HipRight Z| () Real)
(declare-fun |KneeRight Norm| () Real)
(declare-fun |HandRight Y| () Real)
(declare-fun |ShoulderRight Y| () Real)
(declare-fun |ElbowRight Y| () Real)
(declare-fun |WristRight Y| () Real)
(declare-fun |HipRight Y| () Real)
(declare-fun |HandRight X| () Real)
(declare-fun |ShoulderRight X| () Real)
(declare-fun |ElbowRight X| () Real)
(declare-fun |WristRight X| () Real)
(declare-fun |HipRight X| () Real)
(declare-fun |SpineMid Z| () Real)
(declare-fun |SpineShoulder Z| () Real)
(declare-fun |ElbowLeft Norm| () Real)
(declare-fun |ShoulderLeft Norm| () Real)
(declare-fun |ShoulderLeft Z| () Real)
(declare-fun |SpineMid Y| () Real)
(declare-fun |SpineShoulder Y| () Real)
(declare-fun |ShoulderLeft Y| () Real)
(declare-fun |SpineMid X| () Real)
(declare-fun |SpineShoulder X| () Real)
(declare-fun |ShoulderLeft X| () Real)
(declare-fun |ThumbRight Z| () Real)
(declare-fun |ThumbRight Y| () Real)
(declare-fun |ThumbRight X| () Real)
(assert
(let ((?x3920 (* |HandRight Z| |HandRight Norm|)))
(let ((?x4372 (* 0.0 |SpineMid Norm|)))
(let ((?x10834 (* 0.0 |SpineShoulder Norm|)))
(let ((?x4101 (* |ShoulderRight Z| |ShoulderRight Norm|)))
(let ((?x5251 (* |ElbowRight Z| |ElbowRight Norm|)))
(let ((?x5344 (* |WristRight Z| |WristRight Norm|)))
(let ((?x5111 (+ 0.0 ?x3920)))
(let ((?x4613 (+ ?x5111 ?x5344)))
(let ((?x4022 (+ ?x4613 ?x5251)))
(let ((?x4695 (+ ?x4022 ?x4101)))
(let ((?x2440 (+ ?x4695 ?x10834)))
(let ((?x6416 (+ ?x2440 ?x4372)))
(let ((?x8085 (+ ?x6416 ?x3920)))
(let ((?x2389 (* (~ 1.0) 0.0)))
(let ((?x3991 (* 0.0 (~ 1.0))))
(let ((?x11678 (+ ?x3991 ?x2389)))
(let (($x134 (>= (~ 1.0) 0.0)))
(let ((?x135 (- 0.0 (~ 1.0))))
(let ((?x136 (ite $x134 (~ 1.0) ?x135)))
(let ((?x113 (- 0.0 0.0)))
(let (($x112 (>= 0.0 0.0)))
(let ((?x114 (ite $x112 0.0 ?x113)))
(let (($x4784 (>= ?x114 ?x136)))
(let ((?x5815 (ite $x4784 (~ 1.0) (ite $x134 (+ ?x3991 (* 1.0 0.0)) ?x11678))))
(let ((?x4959 (* (/ 129.0 500.0) ?x5815)))
(let ((?x2109 (* 0.0 0.0)))
(let ((?x1304 (* 1.0 (~ 1.0))))
(let ((?x3066 (+ ?x1304 ?x2109)))
(let ((?x7055 (ite $x4784 (ite $x112 (+ ?x2389 ?x2109) (+ (* 1.0 0.0) ?x2109)) (ite $x134 (+ (* (~ 1.0) (~ 1.0)) ?x2109) ?x3066))))
(let ((?x7965 (* (/ 193.0 200.0) ?x7055)))
(let (($x5323 (>= ?x7055 0.0)))
(let ((?x1980 (- 0.0 ?x7055)))
(let ((?x9892 (ite $x5323 ?x7055 ?x1980)))
(let ((?x2501 (ite $x4784 (ite $x112 (+ ?x2109 (* 1.0 0.0)) (+ ?x2109 ?x2389)) 0.0)))
(let ((?x11513 (- 0.0 ?x2501)))
(let (($x8975 (>= ?x2501 0.0)))
(let ((?x9551 (ite $x8975 ?x2501 ?x11513)))
(let (($x331 (>= ?x9551 ?x9892)))
(let ((?x9295 (ite $x331 ?x7055 (ite $x5323 (+ ?x7965 (* (~ (/ 129.0 500.0)) ?x5815)) (+ ?x7965 ?x4959)))))
(let ((?x11883 (* ?x9295 |AnkleRight Norm|)))
(let ((?x279 (* |HipRight Z| |HipRight Norm|)))
(let ((?x7225 (- (+ (+ (+ (+ 0.0 ?x11883) (* 0.0 |KneeRight Norm|)) ?x279) ?x11883) ?x8085)))
(let ((?x9944 (ite (>= ?x7225 0.0) ?x7225 (- 0.0 ?x7225))))
(let ((?x4421 (* |HandRight Y| |HandRight Norm|)))
(let ((?x9973 (* 1.0 |SpineMid Norm|)))
(let ((?x7483 (* 1.0 |SpineShoulder Norm|)))
(let ((?x5302 (* |ShoulderRight Y| |ShoulderRight Norm|)))
(let ((?x5405 (* |ElbowRight Y| |ElbowRight Norm|)))
(let ((?x4865 (* |WristRight Y| |WristRight Norm|)))
(let ((?x4697 (+ 0.0 ?x4421)))
(let ((?x4533 (+ ?x4697 ?x4865)))
(let ((?x5310 (+ ?x4533 ?x5405)))
(let ((?x5396 (+ ?x5310 ?x5302)))
(let ((?x2554 (+ ?x5396 ?x7483)))
(let ((?x4294 (+ ?x2554 ?x9973)))
(let ((?x11372 (+ ?x4294 ?x4421)))
(let ((?x8065 (ite $x5323 (+ (* (/ 129.0 500.0) ?x7055) (* (/ 193.0 200.0) ?x5815)) (+ (* (~ (/ 129.0 500.0)) ?x7055) (* (/ 193.0 200.0) ?x5815)))))
(let ((?x8554 (ite $x8975 (+ (* (/ 129.0 500.0) ?x2501) (* (/ 193.0 200.0) ?x5815)) (+ (* (~ (/ 129.0 500.0)) ?x2501) (* (/ 193.0 200.0) ?x5815)))))
(let ((?x6008 (ite $x331 ?x8554 ?x8065)))
(let ((?x11446 (* ?x6008 |AnkleRight Norm|)))
(let ((?x6435 (* |HipRight Y| |HipRight Norm|)))
(let ((?x11858 (- (+ (+ (+ (+ 0.0 ?x11446) (* (~ 1.0) |KneeRight Norm|)) ?x6435) ?x11446) ?x11372)))
(let ((?x8481 (ite (>= ?x11858 0.0) ?x11858 (- 0.0 ?x11858))))
(let ((?x5582 (* |HandRight X| |HandRight Norm|)))
(let ((?x5113 (* |ShoulderRight X| |ShoulderRight Norm|)))
(let ((?x5038 (* |ElbowRight X| |ElbowRight Norm|)))
(let ((?x3199 (* |WristRight X| |WristRight Norm|)))
(let ((?x4842 (+ 0.0 ?x5582)))
(let ((?x2189 (+ ?x4842 ?x3199)))
(let ((?x3677 (+ ?x2189 ?x5038)))
(let ((?x4996 (+ ?x3677 ?x5113)))
(let ((?x5859 (+ ?x4996 ?x10834)))
(let ((?x9818 (+ ?x5859 ?x4372)))
(let ((?x4115 (+ ?x9818 ?x5582)))
(let ((?x9231 (ite $x8975 (+ (* (/ 193.0 200.0) ?x2501) (* (~ (/ 129.0 500.0)) ?x5815)) (+ (* (/ 193.0 200.0) ?x2501) ?x4959))))
(let ((?x3616 (ite $x331 ?x9231 ?x2501)))
(let ((?x8742 (* ?x3616 |AnkleRight Norm|)))
(let ((?x277 (* |HipRight X| |HipRight Norm|)))
(let ((?x8613 (- (+ (+ (+ (+ 0.0 ?x8742) (* 0.0 |KneeRight Norm|)) ?x277) ?x8742) ?x4115)))
(let ((?x5612 (ite (>= ?x8613 0.0) ?x8613 (- 0.0 ?x8613))))
(let ((?x8721 (ite (>= ?x5612 ?x8481) ?x5612 ?x8481)))
(let ((?x13948 (* ?x7055 |AnkleRight Norm|)))
(let ((?x7843 (- (+ (+ (+ (+ 0.0 ?x13948) (* 0.0 |KneeRight Norm|)) ?x279) ?x13948) ?x8085)))
(let ((?x1275 (ite (>= ?x7843 0.0) ?x7843 (- 0.0 ?x7843))))
(let ((?x1853 (* ?x5815 |AnkleRight Norm|)))
(let ((?x2356 (- (+ (+ (+ (+ 0.0 ?x1853) (* (~ 1.0) |KneeRight Norm|)) ?x6435) ?x1853) ?x11372)))
(let ((?x3909 (ite (>= ?x2356 0.0) ?x2356 (- 0.0 ?x2356))))
(let ((?x5231 (* ?x2501 |AnkleRight Norm|)))
(let ((?x8716 (- (+ (+ (+ (+ 0.0 ?x5231) (* 0.0 |KneeRight Norm|)) ?x277) ?x5231) ?x4115)))
(let ((?x8655 (ite (>= ?x8716 0.0) ?x8716 (- 0.0 ?x8716))))
(let ((?x9688 (ite (>= ?x8655 ?x3909) ?x8655 ?x3909)))
(let (($x6883 (and true true)))
(let (($x9026 (and $x6883 true)))
(let (($x11268 (and (and $x9026 (and true (< (ite (>= ?x9688 ?x1275) ?x9688 ?x1275) (/ 1.0 5.0)))) (and true (< (ite (>= ?x8721 ?x9944) ?x8721 ?x9944) (/ 1.0 5.0))))))
(let ((?x159 (* |SpineMid Z| |SpineMid Norm|)))
(let ((?x435 (* |SpineShoulder Z| |SpineShoulder Norm|)))
(let ((?x5041 (* 0.0 |ElbowRight Norm|)))
(let ((?x9996 (* 0.0 |WristRight Norm|)))
(let ((?x5478 (+ ?x5111 ?x9996)))
(let ((?x9795 (+ ?x5478 ?x5041)))
(let ((?x9672 (+ ?x9795 ?x4101)))
(let ((?x340 (+ ?x9672 ?x435)))
(let ((?x6401 (+ ?x340 ?x159)))
(let ((?x9561 (+ ?x6401 ?x3920)))
(let ((?x6150 (* ?x3066 |ElbowLeft Norm|)))
(let ((?x420 (* |ShoulderLeft Z| |ShoulderLeft Norm|)))
(let ((?x2494 (+ 0.0 ?x6150)))
(let ((?x6637 (+ ?x2494 ?x420)))
(let ((?x8087 (+ ?x6637 ?x435)))
(let ((?x4693 (+ ?x8087 ?x159)))
(let ((?x2083 (+ ?x4693 ?x6150)))
(let ((?x9539 (- ?x2083 ?x9561)))
(let ((?x3033 (- 0.0 ?x9539)))
(let (($x9503 (>= ?x9539 0.0)))
(let ((?x6165 (ite $x9503 ?x9539 ?x3033)))
(let ((?x443 (* |SpineMid Y| |SpineMid Norm|)))
(let ((?x427 (* |SpineShoulder Y| |SpineShoulder Norm|)))
(let ((?x6247 (* (~ 1.0) |ElbowRight Norm|)))
(let ((?x4426 (* (~ 1.0) |WristRight Norm|)))
(let ((?x8282 (+ ?x4697 ?x4426)))
(let ((?x7182 (+ ?x8282 ?x6247)))
(let ((?x8148 (+ ?x7182 ?x5302)))
(let ((?x9376 (+ ?x8148 ?x427)))
(let ((?x9758 (+ ?x9376 ?x443)))
(let ((?x9611 (+ ?x9758 ?x4421)))
(let ((?x1895 (* ?x11678 |ElbowLeft Norm|)))
(let ((?x417 (* |ShoulderLeft Y| |ShoulderLeft Norm|)))
(let ((?x3631 (+ 0.0 ?x1895)))
(let ((?x9902 (+ ?x3631 ?x417)))
(let ((?x12221 (+ ?x9902 ?x427)))
(let ((?x8402 (+ ?x12221 ?x443)))
(let ((?x5887 (+ ?x8402 ?x1895)))
(let ((?x9662 (- ?x5887 ?x9611)))
(let ((?x11079 (- 0.0 ?x9662)))
(let (($x11517 (>= ?x9662 0.0)))
(let ((?x9679 (ite $x11517 ?x9662 ?x11079)))
(let ((?x441 (* |SpineMid X| |SpineMid Norm|)))
(let ((?x426 (* |SpineShoulder X| |SpineShoulder Norm|)))
(let ((?x2926 (+ ?x4842 ?x9996)))
(let ((?x9716 (+ ?x2926 ?x5041)))
(let ((?x5661 (+ ?x9716 ?x5113)))
(let ((?x9919 (+ ?x5661 ?x426)))
(let ((?x2309 (+ ?x9919 ?x441)))
(let ((?x6235 (+ ?x2309 ?x5582)))
(let ((?x7599 (* 0.0 |ElbowLeft Norm|)))
(let ((?x416 (* |ShoulderLeft X| |ShoulderLeft Norm|)))
(let ((?x3044 (+ 0.0 ?x7599)))
(let ((?x9650 (+ ?x3044 ?x416)))
(let ((?x2190 (+ ?x9650 ?x426)))
(let ((?x8241 (+ ?x2190 ?x441)))
(let ((?x9767 (+ ?x8241 ?x7599)))
(let ((?x9736 (- ?x9767 ?x6235)))
(let ((?x10047 (- 0.0 ?x9736)))
(let (($x5287 (>= ?x9736 0.0)))
(let ((?x9867 (ite $x5287 ?x9736 ?x10047)))
(let (($x3788 (>= ?x9867 ?x9679)))
(let ((?x13945 (ite $x3788 ?x9867 ?x9679)))
(let (($x8974 (>= ?x13945 ?x6165)))
(let ((?x6667 (ite $x8974 ?x13945 ?x6165)))
(let (($x7319 (< ?x6667 (/ 1.0 5.0))))
(let (($x9402 (and true $x7319)))
(let (($x8791 (and $x6883 $x9402)))
(let ((?x9194 (- |ThumbRight Z| |ThumbRight Z|)))
(let ((?x8486 (- 0.0 ?x9194)))
(let (($x6679 (>= ?x9194 0.0)))
(let ((?x8796 (ite $x6679 ?x9194 ?x8486)))
(let ((?x7398 (- |ThumbRight Y| |ThumbRight Y|)))
(let ((?x2945 (- 0.0 ?x7398)))
(let (($x2946 (>= ?x7398 0.0)))
(let ((?x10061 (ite $x2946 ?x7398 ?x2945)))
(let ((?x9143 (- |ThumbRight X| |ThumbRight X|)))
(let ((?x8632 (- 0.0 ?x9143)))
(let (($x4961 (>= ?x9143 0.0)))
(let ((?x11066 (ite $x4961 ?x9143 ?x8632)))
(let (($x9863 (>= ?x11066 ?x10061)))
(let ((?x2010 (ite $x9863 ?x11066 ?x10061)))
(let (($x8858 (>= ?x2010 ?x8796)))
(let ((?x7351 (ite $x8858 ?x2010 ?x8796)))
(let (($x10727 (< ?x7351 15.0)))
(let (($x9765 (and $x10727)))
(and $x9765 $x8791 $x11268))))))))))))))))))))))))))))))))))))))))))))))))))))))))))))))))))))))))))))))))))))))))))))))))))))))))))))))))))))))))))))))))))))))))))))))))))))))))))))))))))))))))))))))))))))))
(check-sat)
